instances/shortest_path/discrete/shortest_path_5_7.kp
991
96

[0.5657356838812881 1.4806432975370345 5.67854485722377 3.131885076880576 4.977455832843857 2.6562301373761255 5.363067075941182 2.260925091999013 4.206333216582495 5.1056032067067525 5.829345720544467 0.5490417443615929 5.277637324764646 2.501686864714547 1.9239735258152502 2.4965232446888495]

[96 85 83 40 65 10 22 8 14 95 96 68 81 61 45 49]
